
Gurobi 12.0.1 (win64, C++) logging started Thu Mar 20 17:00:41 2025

Set parameter Username
Set parameter LicenseID to value 2618661
Academic license - for non-commercial use only - expires 2026-02-05
Set parameter Threads to value 8
Set parameter LazyConstraints to value 1
Set parameter PreCrush to value 1
Set parameter Seed to value 0
Set parameter Cuts to value -1
Set parameter TimeLimit to value 28800
Set parameter NumericFocus to value 0
Set parameter SolutionLimit to value 10000
Gurobi Optimizer version 12.0.1 build v12.0.1rc0 (win64 - Windows Server 2022.0 (20348.2))

CPU model: AMD EPYC 7513 32-Core Processor, instruction set [SSE2|AVX|AVX2]
Thread count: 18 physical cores, 18 logical processors, using up to 8 threads

Non-default parameters:
SolutionLimit  10000
TimeLimit  28800
PreCrush  1
Threads  8
LazyConstraints  1

Optimize a model with 137 rows, 256 columns and 720 nonzeros
Model fingerprint: 0x16089dae
Variable types: 0 continuous, 256 integer (256 binary)
Coefficient statistics:
  Matrix range     [1e+00, 1e+00]
  Objective range  [8e+00, 6e+01]
  Bounds range     [1e+00, 1e+00]
  RHS range        [1e+00, 5e+00]
Presolve removed 2 rows and 18 columns
Presolve time: 0.00s
Presolved: 135 rows, 238 columns, 669 nonzeros
Variable types: 0 continuous, 238 integer (238 binary)

Root relaxation: objective 2.862678e+02, 57 iterations, 0.00 seconds (0.00 work units)

    Nodes    |    Current Node    |     Objective Bounds      |     Work
 Expl Unexpl |  Obj  Depth IntInf | Incumbent    BestBd   Gap | It/Node Time

     0     0  286.26777    0    -          -  286.26777      -     -    0s
     0     0  294.19409    0    -          -  294.19409      -     -    0s
     0     0  295.17078    0   24          -  295.17078      -     -    0s
     0     0  298.38235    0    -          -  298.38235      -     -    0s
     0     0  299.27837    0    -          -  299.27837      -     -    0s
     0     0  299.63642    0    -          -  299.63642      -     -    0s
     0     0  303.18784    0   26          -  303.18784      -     -    0s
     0     0  304.13654    0   20          -  304.13654      -     -    0s
     0     0  304.27544    0    -          -  304.27544      -     -    0s
     0     0  305.84616    0   22          -  305.84616      -     -    0s
     0     2  305.84616    0   16          -  305.84616      -     -    0s
* 1334  1086              29     362.0435168  316.14980  12.7%   7.2    2s
* 1615  1228              26     357.7525447  316.69064  11.5%   7.1    2s
* 1834  1318              28     349.2768583  316.92093  9.26%   7.0    2s
H 2117  1221                     334.9638862  320.71989  4.25%   7.0    3s

Cutting planes:
  Gomory: 8
  Clique: 2
  MIR: 1
  Flow cover: 4
  Zero half: 13
  Relax-and-lift: 1
  Lazy constraints: 16

Explored 3182 nodes (24646 simplex iterations) in 3.65 seconds (0.76 work units)
Thread count was 8 (of 18 available processors)

Solution count 4: 334.964 349.277 357.753 362.044 

Optimal solution found (tolerance 1.00e-04)
Best objective 3.349638862376e+02, best bound 3.349638862376e+02, gap 0.0000%

User-callback calls 6948, time in user-callback 2.89 sec
### START EXACT APPROACH ###
ProblemVariant: 1
### START PREPROCESSING ###
## Start infeasible path procedure ## 
Deleted arcs: 2
Infeasible tail paths: 0
Infeasible 2-node combinations: 1
## Start extended infeasible path procedure ##
Deleted arcs: 2
Infeasible tail paths: 0
Infeasible 2-node combinations: 1
## Start start solution procedure ##
### END PREPROCESSING ###
Route 0 0-2-3-1-0 : weight util 0.963636 | volume util 0.287511 | infeasible with packing heuristic | feasible with CP model
Route 1 0-6-11-5-0 : weight util 1.000000 | volume util 0.366000 | infeasible with packing heuristic | feasible with CP model
Route 2 0-8-7-0 : weight util 0.763636 | volume util 0.217111 | infeasible with packing heuristic | feasible with CP model
Route 3 0-9-10-15-12-0 : weight util 1.000000 | volume util 0.379378 | infeasible with packing heuristic | feasible with CP model
Route 4 0-14-13-4-0 : weight util 0.963636 | volume util 0.411000 | infeasible with packing heuristic | feasible with CP model
